p tw 720 10801 7 
1 8 
1 81 
2 9 
2 10 
2 82 
3 7 
3 10 
3 241 
4 8 
4 9 
4 242 
5 7 
5 9 
5 621 
6 8 
6 10 
6 622 
11 17 
11 18 
11 391 
12 19 
12 20 
12 392 
13 17 
13 20 
13 561 
14 18 
14 19 
14 562 
15 17 
15 19 
15 601 
16 18 
16 20 
16 602 
21 27 
21 28 
21 171 
22 29 
22 30 
22 172 
23 27 
23 30 
23 311 
24 28 
24 29 
24 312 
25 27 
25 29 
25 341 
26 28 
26 30 
26 342 
31 37 
31 38 
31 421 
32 39 
32 40 
32 422 
33 37 
33 40 
33 441 
34 38 
34 39 
34 442 
35 37 
35 39 
35 701 
36 38 
36 40 
36 702 
41 47 
41 48 
41 61 
42 49 
42 50 
42 62 
43 47 
43 50 
43 173 
44 48 
44 49 
44 174 
45 47 
45 49 
45 541 
46 48 
46 50 
46 542 
51 57 
51 58 
51 471 
52 59 
52 60 
52 472 
53 57 
53 60 
53 543 
54 58 
54 59 
54 544 
55 57 
55 59 
55 623 
56 58 
56 60 
56 624 
61 67 
61 68 
62 69 
62 70 
63 67 
63 70 
63 151 
64 68 
64 69 
64 152 
65 67 
65 69 
65 571 
66 68 
66 70 
66 572 
71 77 
71 78 
71 291 
72 79 
72 80 
72 292 
73 77 
73 80 
73 371 
74 78 
74 79 
74 372 
75 77 
75 79 
75 451 
76 78 
76 80 
76 452 
81 87 
81 88 
82 89 
82 90 
83 87 
83 90 
83 443 
84 88 
84 89 
84 444 
85 87 
85 89 
85 581 
86 88 
86 90 
86 582 
91 97 
91 98 
91 111 
92 99 
92 100 
92 112 
93 97 
93 100 
93 261 
94 98 
94 99 
94 262 
95 97 
95 99 
95 661 
96 98 
96 100 
96 662 
101 107 
101 108 
101 201 
102 109 
102 110 
102 202 
103 107 
103 110 
103 603 
104 108 
104 109 
104 604 
105 107 
105 109 
105 651 
106 108 
106 110 
106 652 
111 117 
111 118 
112 119 
112 120 
113 117 
113 120 
113 141 
114 118 
114 119 
114 142 
115 117 
115 119 
115 293 
116 118 
116 120 
116 294 
121 127 
121 128 
121 351 
122 129 
122 130 
122 352 
123 127 
123 130 
123 393 
124 128 
124 129 
124 394 
125 127 
125 129 
125 681 
126 128 
126 130 
126 682 
131 137 
131 138 
131 461 
132 139 
132 140 
132 462 
133 137 
133 140 
133 641 
134 138 
134 139 
134 642 
135 137 
135 139 
135 653 
136 138 
136 140 
136 654 
141 147 
141 148 
142 149 
142 150 
143 147 
143 150 
143 251 
144 148 
144 149 
144 252 
145 147 
145 149 
145 453 
146 148 
146 150 
146 454 
151 157 
151 158 
152 159 
152 160 
153 157 
153 160 
153 211 
154 158 
154 159 
154 212 
155 157 
155 159 
155 423 
156 158 
156 160 
156 424 
161 167 
161 168 
161 313 
162 169 
162 170 
162 314 
163 167 
163 170 
163 545 
164 168 
164 169 
164 546 
165 167 
165 169 
165 691 
166 168 
166 170 
166 692 
171 177 
171 178 
172 179 
172 180 
173 177 
173 180 
174 178 
174 179 
175 177 
175 179 
175 703 
176 178 
176 180 
176 704 
181 187 
181 188 
181 221 
182 189 
182 190 
182 222 
183 187 
183 190 
183 243 
184 188 
184 189 
184 244 
185 187 
185 189 
185 425 
186 188 
186 190 
186 426 
191 197 
191 198 
191 321 
192 199 
192 200 
192 322 
193 197 
193 200 
193 431 
194 198 
194 199 
194 432 
195 197 
195 199 
195 663 
196 198 
196 200 
196 664 
201 207 
201 208 
202 209 
202 210 
203 207 
203 210 
203 231 
204 208 
204 209 
204 232 
205 207 
205 209 
205 491 
206 208 
206 210 
206 492 
211 217 
211 218 
212 219 
212 220 
213 217 
213 220 
213 671 
214 218 
214 219 
214 672 
215 217 
215 219 
215 693 
216 218 
216 220 
216 694 
221 227 
221 228 
222 229 
222 230 
223 227 
223 230 
223 531 
224 228 
224 229 
224 532 
225 227 
225 229 
225 665 
226 228 
226 230 
226 666 
231 237 
231 238 
232 239 
232 240 
233 237 
233 240 
233 395 
234 238 
234 239 
234 396 
235 237 
235 239 
235 521 
236 238 
236 240 
236 522 
241 247 
241 248 
242 249 
242 250 
243 247 
243 250 
244 248 
244 249 
245 247 
245 249 
245 253 
246 248 
246 250 
246 254 
251 257 
251 258 
252 259 
252 260 
253 257 
253 260 
254 258 
254 259 
255 257 
255 259 
255 631 
256 258 
256 260 
256 632 
261 267 
261 268 
262 269 
262 270 
263 267 
263 270 
263 281 
264 268 
264 269 
264 282 
265 267 
265 269 
265 523 
266 268 
266 270 
266 524 
271 277 
271 278 
271 353 
272 279 
272 280 
272 354 
273 277 
273 280 
273 511 
274 278 
274 279 
274 512 
275 277 
275 279 
275 573 
276 278 
276 280 
276 574 
281 287 
281 288 
282 289 
282 290 
283 287 
283 290 
283 411 
284 288 
284 289 
284 412 
285 287 
285 289 
285 683 
286 288 
286 290 
286 684 
291 297 
291 298 
292 299 
292 300 
293 297 
293 300 
294 298 
294 299 
295 297 
295 299 
295 481 
296 298 
296 300 
296 482 
301 307 
301 308 
301 493 
302 309 
302 310 
302 494 
303 307 
303 310 
303 705 
304 308 
304 309 
304 706 
305 307 
305 309 
305 711 
306 308 
306 310 
306 712 
311 317 
311 318 
312 319 
312 320 
313 317 
313 320 
314 318 
314 319 
315 317 
315 319 
315 673 
316 318 
316 320 
316 674 
321 327 
321 328 
322 329 
322 330 
323 327 
323 330 
323 413 
324 328 
324 329 
324 414 
325 327 
325 329 
325 583 
326 328 
326 330 
326 584 
331 337 
331 338 
331 361 
332 339 
332 340 
332 362 
333 337 
333 340 
333 473 
334 338 
334 339 
334 474 
335 337 
335 339 
335 551 
336 338 
336 340 
336 552 
341 347 
341 348 
342 349 
342 350 
343 347 
343 350 
343 433 
344 348 
344 349 
344 434 
345 347 
345 349 
345 713 
346 348 
346 350 
346 714 
351 357 
351 358 
352 359 
352 360 
353 357 
353 360 
354 358 
354 359 
355 357 
355 359 
355 463 
356 358 
356 360 
356 464 
361 367 
361 368 
362 369 
362 370 
363 367 
363 370 
363 591 
364 368 
364 369 
364 592 
365 367 
365 369 
365 685 
366 368 
366 370 
366 686 
371 377 
371 378 
372 379 
372 380 
373 377 
373 380 
373 611 
374 378 
374 379 
374 612 
375 377 
375 379 
375 715 
376 378 
376 380 
376 716 
381 387 
381 388 
381 465 
382 389 
382 390 
382 466 
383 387 
383 390 
383 525 
384 388 
384 389 
384 526 
385 387 
385 389 
385 593 
386 388 
386 390 
386 594 
391 397 
391 398 
392 399 
392 400 
393 397 
393 400 
394 398 
394 399 
395 397 
395 399 
396 398 
396 400 
401 407 
401 408 
401 445 
402 409 
402 410 
402 446 
403 407 
403 410 
403 513 
404 408 
404 409 
404 514 
405 407 
405 409 
405 533 
406 408 
406 410 
406 534 
411 417 
411 418 
412 419 
412 420 
413 417 
413 420 
414 418 
414 419 
415 417 
415 419 
415 495 
416 418 
416 420 
416 496 
421 427 
421 428 
422 429 
422 430 
423 427 
423 430 
424 428 
424 429 
425 427 
425 429 
426 428 
426 430 
431 437 
431 438 
432 439 
432 440 
433 437 
433 440 
434 438 
434 439 
435 437 
435 439 
435 501 
436 438 
436 440 
436 502 
441 447 
441 448 
442 449 
442 450 
443 447 
443 450 
444 448 
444 449 
445 447 
445 449 
446 448 
446 450 
451 457 
451 458 
452 459 
452 460 
453 457 
453 460 
454 458 
454 459 
455 457 
455 459 
455 655 
456 458 
456 460 
456 656 
461 467 
461 468 
462 469 
462 470 
463 467 
463 470 
464 468 
464 469 
465 467 
465 469 
466 468 
466 470 
471 477 
471 478 
472 479 
472 480 
473 477 
473 480 
474 478 
474 479 
475 477 
475 479 
475 553 
476 478 
476 480 
476 554 
481 487 
481 488 
482 489 
482 490 
483 487 
483 490 
483 563 
484 488 
484 489 
484 564 
485 487 
485 489 
485 575 
486 488 
486 490 
486 576 
491 497 
491 498 
492 499 
492 500 
493 497 
493 500 
494 498 
494 499 
495 497 
495 499 
496 498 
496 500 
501 507 
501 508 
502 509 
502 510 
503 507 
503 510 
503 633 
504 508 
504 509 
504 634 
505 507 
505 509 
505 695 
506 508 
506 510 
506 696 
511 517 
511 518 
512 519 
512 520 
513 517 
513 520 
514 518 
514 519 
515 517 
515 519 
515 535 
516 518 
516 520 
516 536 
521 527 
521 528 
522 529 
522 530 
523 527 
523 530 
524 528 
524 529 
525 527 
525 529 
526 528 
526 530 
531 537 
531 538 
532 539 
532 540 
533 537 
533 540 
534 538 
534 539 
535 537 
535 539 
536 538 
536 540 
541 547 
541 548 
542 549 
542 550 
543 547 
543 550 
544 548 
544 549 
545 547 
545 549 
546 548 
546 550 
551 557 
551 558 
552 559 
552 560 
553 557 
553 560 
554 558 
554 559 
555 557 
555 559 
555 605 
556 558 
556 560 
556 606 
561 567 
561 568 
562 569 
562 570 
563 567 
563 570 
564 568 
564 569 
565 567 
565 569 
565 675 
566 568 
566 570 
566 676 
571 577 
571 578 
572 579 
572 580 
573 577 
573 580 
574 578 
574 579 
575 577 
575 579 
576 578 
576 580 
581 587 
581 588 
582 589 
582 590 
583 587 
583 590 
584 588 
584 589 
585 587 
585 589 
585 635 
586 588 
586 590 
586 636 
591 597 
591 598 
592 599 
592 600 
593 597 
593 600 
594 598 
594 599 
595 597 
595 599 
595 613 
596 598 
596 600 
596 614 
601 607 
601 608 
602 609 
602 610 
603 607 
603 610 
604 608 
604 609 
605 607 
605 609 
606 608 
606 610 
611 617 
611 618 
612 619 
612 620 
613 617 
613 620 
614 618 
614 619 
615 617 
615 619 
615 643 
616 618 
616 620 
616 644 
621 627 
621 628 
622 629 
622 630 
623 627 
623 630 
624 628 
624 629 
625 627 
625 629 
625 645 
626 628 
626 630 
626 646 
631 637 
631 638 
632 639 
632 640 
633 637 
633 640 
634 638 
634 639 
635 637 
635 639 
636 638 
636 640 
641 647 
641 648 
642 649 
642 650 
643 647 
643 650 
644 648 
644 649 
645 647 
645 649 
646 648 
646 650 
651 657 
651 658 
652 659 
652 660 
653 657 
653 660 
654 658 
654 659 
655 657 
655 659 
656 658 
656 660 
661 667 
661 668 
662 669 
662 670 
663 667 
663 670 
664 668 
664 669 
665 667 
665 669 
666 668 
666 670 
671 677 
671 678 
672 679 
672 680 
673 677 
673 680 
674 678 
674 679 
675 677 
675 679 
676 678 
676 680 
681 687 
681 688 
682 689 
682 690 
683 687 
683 690 
684 688 
684 689 
685 687 
685 689 
686 688 
686 690 
691 697 
691 698 
692 699 
692 700 
693 697 
693 700 
694 698 
694 699 
695 697 
695 699 
696 698 
696 700 
701 707 
701 708 
702 709 
702 710 
703 707 
703 710 
704 708 
704 709 
705 707 
705 709 
706 708 
706 710 
711 717 
711 718 
712 719 
712 720 
713 717 
713 720 
714 718 
714 719 
715 717 
715 719 
716 718 
716 720 
